53 53
21 7
20 4
23 5
10 48
16 45
25 50
22 12
12 29
8 17
15 19
17 30
6 11
26 28
10 46
26 20
22 18
14 31
6 10
7 32
19 24
15 2
19 39
13 6
3 21
18 9
2 43
9 41
11 38
5 40
3 37
13 8
20 25
11 13
23 14
16 23
1 35
18 1
12 53
24 36
17 26
14 42
4 52
25 33
24 47
5 15
21 49
7 16
9 27
1 22
8 34
2 44
4 3
1 51
